solution status: optimal solution found
objective value:                                   21
$_92_y                                             11 	(obj:0)
$_92_z                                             17 	(obj:0)
$_71_y                                             19 	(obj:0)
$_71_z                                             17 	(obj:0)
$_17__2_y                                          10 	(obj:0)
$_17__2_z                                          21 	(obj:0)
$_90_y                                             20 	(obj:0)
$_90_z                                             19 	(obj:0)
$_265_y                                            18 	(obj:0)
$_265_z                                            18 	(obj:0)
$_217_y                                            19 	(obj:0)
$_217_z                                            15 	(obj:0)
$_320_y                                            19 	(obj:0)
$_320_z                                            18 	(obj:0)
$_28__2_y                                          19 	(obj:0)
$_28__2_z                                          22 	(obj:0)
$_25__2_y                                          23 	(obj:0)
$_25__2_z                                          13 	(obj:0)
$_51_y                                             19 	(obj:0)
$_51_z                                             23 	(obj:0)
$_113_y                                            11 	(obj:0)
$_113_z                                            15 	(obj:0)
$_58_y                                             12 	(obj:0)
$_58_z                                             19 	(obj:0)
$_80_y                                             12 	(obj:0)
$_80_z                                             21 	(obj:0)
$_93_y                                             11 	(obj:0)
$_93_z                                             16 	(obj:0)
$_19__2_y                                          21 	(obj:0)
$_19__2_z                                          15 	(obj:0)
$_185_y                                            17 	(obj:0)
$_185_z                                            15 	(obj:0)
$_88_y                                             20 	(obj:0)
$_88_z                                             18 	(obj:0)
$_297_y                                            12 	(obj:0)
$_297_z                                            17 	(obj:0)
$_84_y                                             19 	(obj:0)
$_84_z                                             20 	(obj:0)
$_201_y                                            19 	(obj:0)
$_201_z                                            13 	(obj:0)
$_91_y                                             15 	(obj:0)
$_91_z                                             16 	(obj:0)
$_85_y                                             15 	(obj:0)
$_85_z                                             15 	(obj:0)
$_23__2_y                                          15 	(obj:0)
$_23__2_z                                          22 	(obj:0)
$_95_y                                             19 	(obj:0)
$_95_z                                             19 	(obj:0)
$_21__2_y                                          12 	(obj:0)
$_21__2_z                                          14 	(obj:0)
$_281_y                                            15 	(obj:0)
$_281_z                                            17 	(obj:0)
$_233_y                                            20 	(obj:0)
$_233_z                                            17 	(obj:0)
$_73_y                                             13 	(obj:0)
$_73_z                                             17 	(obj:0)
$_22__2_y                                          21 	(obj:0)
$_22__2_z                                          22 	(obj:0)
$_86_y                                             19 	(obj:0)
$_86_z                                             14 	(obj:0)
$_48_y                                             15 	(obj:0)
$_48_z                                             18 	(obj:0)
$_18_y                                             14 	(obj:0)
$_18_z                                             21 	(obj:0)
$_24__2_y                                          25 	(obj:0)
$_24__2_z                                          11 	(obj:0)
$_27__2_y                                          11 	(obj:0)
$_27__2_z                                          11 	(obj:0)
$_26__2_y                                          12 	(obj:0)
$_26__2_z                                          20 	(obj:0)
$_89_y                                             17 	(obj:0)
$_89_z                                             14 	(obj:0)
$_321_y                                            18 	(obj:0)
$_321_z                                            19 	(obj:0)
$_249_y                                            18 	(obj:0)
$_249_z                                            17 	(obj:0)
$_49_y                                             18 	(obj:0)
$_49_z                                             21 	(obj:0)
$_70_y                                             15 	(obj:0)
$_70_z                                             19 	(obj:0)
$_168_y                                            17 	(obj:0)
$_168_z                                            17 	(obj:0)
$_20__2_y                                          12 	(obj:0)
$_20__2_z                                          16 	(obj:0)
$_87_y                                             18 	(obj:0)
$_87_z                                             13 	(obj:0)
x95                                                 1 	(obj:1)
x97                                                 1 	(obj:1)
x101                                                1 	(obj:1)
x102                                                2 	(obj:1)
x123                                                2 	(obj:1)
x130                                                1 	(obj:1)
x149                                                2 	(obj:1)
x153                                                2 	(obj:1)
x154                                                2 	(obj:1)
x176                                                2 	(obj:1)
x177                                                1 	(obj:1)
x183                                                2 	(obj:1)
x184                                                2 	(obj:1)
